34 4
256 512 1024 16 32 64 128 2048 4096 8192 16384 32768 65536 131072 262144 524288 1048576 1 1 1 1 1 1 1 1 1 1 1 1 1 1 1 1 1
1000000000 1000000000 1000000000 1000000000 1000000000 1000000000 1000000000 1000000000 1000000000 1000000000 1000000000 1000000000 1000000000 1000000000 1000000000 1000000000 1000000000 -100 -100 -100 -100 -100 -100 -100 -100 -100 -100 -100 -100 -100 -100 -100 -100 -100
